<number of tasks>
20

<cycle time>
1000

<order strength>
0,2


<task times>
1 132
2 186
3 200
4 497
5 577
6 261
7 522
8 133
9 79
10 21
11 432
12 77
13 146
14 151
15 330
16 88
17 433
18 67
19 85
20 29

<precedence relations>
2,5
2,6
4,7
5,8
5,10
5,12
6,9
6,11
6,13
9,18
10,14
10,15
10,16
13,17
14,20
15,19

<end>
